SAT
60 55 -47 -98 81 50 -3 -59 -97 52 68 62 -67 31 -38 93 26 -32 -78 95 37 85 -9 -92 -54 -23 -74 -58 -82 40 5 76 -51 57 -86 -39 -30 -49 -20 -79 29 -17 -80 7 6 -41 8 44 -83 -19 35 -99 65 -61 64 56 -13 -88 -100 24 -45 22 -48 -2 4 -69 53 43 77 66 -16 96 28 73 -14 46 -94 -91 90 -71 -63 89 -10 84 -87 11 21 -42 -12 1 36 -34 -75 33 -27 15 -18 25 70 72 0
